\ Model _copy
\ LP format - for model browsing. Use MPS format to capture full model detail.
Maximize
 
Subject To
 R3:
   y_Colegio_Los_Leones_de_Quilpue_Español_de_Talca_1_Gimnasio_Colegio_Los_Leones_2
   + y_Colegio_Los_Leones_de_Quilpue_Español_de_Talca_1_Gimnasio_Regional_de_Talca_2
   + y_Colegio_Los_Leones_de_Quilpue_Español_de_Talca_1_Gimnasio_Municipal_de_San_Fernando_2
   + y_Colegio_Los_Leones_de_Quilpue_Español_de_Talca_1_Estadio_Palestino_2
   + y_Colegio_Los_Leones_de_Quilpue_Español_de_Talca_1_Casa_del_Deporte_2
   + y_Colegio_Los_Leones_de_Quilpue_Español_de_Talca_1_Gimnasio_Municipal_de_Puente_Alto_2
   + y_Colegio_Los_Leones_de_Quilpue_Español_de_Talca_1_Coliseo_Municipal_Antonio_Azurmendy_2
   + y_Colegio_Los_Leones_de_Quilpue_Español_de_Talca_1_Gimnasio_Fiscal_de_Ancud_2
   + y_Colegio_Los_Leones_de_Quilpue_Español_de_Talca_1_Gimnasio_Monumental_María_Gallardo_2
   + y_Colegio_Los_Leones_de_Quilpue_Español_de_Talca_1_Gimnasio_Fiscal_de_Castro_2
   + y_Colegio_Los_Leones_de_Quilpue_Español_de_Talca_1_Gimnasio_de_Las_Ánimas_2
   + y_Colegio_Los_Leones_de_Quilpue_Español_de_Talca_1_Gimnasio_Municipal_Mario_Merchant_Binder_2
   <= 0
 R7:
   y_Colegio_Los_Leones_de_Quilpue_Español_de_Talca_2_Gimnasio_Colegio_Los_Leones_2
   + y_Colegio_Los_Leones_de_Quilpue_Español_de_Talca_2_Gimnasio_Regional_de_Talca_2
   + y_Colegio_Los_Leones_de_Quilpue_Español_de_Talca_2_Gimnasio_Municipal_de_San_Fernando_2
   + y_Colegio_Los_Leones_de_Quilpue_Español_de_Talca_2_Estadio_Palestino_2
   + y_Colegio_Los_Leones_de_Quilpue_Español_de_Talca_2_Casa_del_Deporte_2
   + y_Colegio_Los_Leones_de_Quilpue_Español_de_Talca_2_Gimnasio_Municipal_de_Puente_Alto_2
   + y_Colegio_Los_Leones_de_Quilpue_Español_de_Talca_2_Coliseo_Municipal_Antonio_Azurmendy_2
   + y_Colegio_Los_Leones_de_Quilpue_Español_de_Talca_2_Gimnasio_Fiscal_de_Ancud_2
   + y_Colegio_Los_Leones_de_Quilpue_Español_de_Talca_2_Gimnasio_Monumental_María_Gallardo_2
   + y_Colegio_Los_Leones_de_Quilpue_Español_de_Talca_2_Gimnasio_Fiscal_de_Castro_2
   + y_Colegio_Los_Leones_de_Quilpue_Español_de_Talca_2_Gimnasio_de_Las_Ánimas_2
   + y_Colegio_Los_Leones_de_Quilpue_Español_de_Talca_2_Gimnasio_Municipal_Mario_Merchant_Binder_2
   <= 0
 R11:
   y_Colegio_Los_Leones_de_Quilpue_Español_de_Talca_3_Gimnasio_Colegio_Los_Leones_2
   + y_Colegio_Los_Leones_de_Quilpue_Español_de_Talca_3_Gimnasio_Regional_de_Talca_2
   + y_Colegio_Los_Leones_de_Quilpue_Español_de_Talca_3_Gimnasio_Municipal_de_San_Fernando_2
   + y_Colegio_Los_Leones_de_Quilpue_Español_de_Talca_3_Estadio_Palestino_2
   + y_Colegio_Los_Leones_de_Quilpue_Español_de_Talca_3_Casa_del_Deporte_2
   + y_Colegio_Los_Leones_de_Quilpue_Español_de_Talca_3_Gimnasio_Municipal_de_Puente_Alto_2
   + y_Colegio_Los_Leones_de_Quilpue_Español_de_Talca_3_Coliseo_Municipal_Antonio_Azurmendy_2
   + y_Colegio_Los_Leones_de_Quilpue_Español_de_Talca_3_Gimnasio_Fiscal_de_Ancud_2
   + y_Colegio_Los_Leones_de_Quilpue_Español_de_Talca_3_Gimnasio_Monumental_María_Gallardo_2
   + y_Colegio_Los_Leones_de_Quilpue_Español_de_Talca_3_Gimnasio_Fiscal_de_Castro_2
   + y_Colegio_Los_Leones_de_Quilpue_Español_de_Talca_3_Gimnasio_de_Las_Ánimas_2
   + y_Colegio_Los_Leones_de_Quilpue_Español_de_Talca_3_Gimnasio_Municipal_Mario_Merchant_Binder_2
   <= 0
 R15:
   y_Colegio_Los_Leones_de_Quilpue_Español_de_Talca_4_Gimnasio_Colegio_Los_Leones_2
   + y_Colegio_Los_Leones_de_Quilpue_Español_de_Talca_4_Gimnasio_Regional_de_Talca_2
   + y_Colegio_Los_Leones_de_Quilpue_Español_de_Talca_4_Gimnasio_Municipal_de_San_Fernando_2
   + y_Colegio_Los_Leones_de_Quilpue_Español_de_Talca_4_Estadio_Palestino_2
   + y_Colegio_Los_Leones_de_Quilpue_Español_de_Talca_4_Casa_del_Deporte_2
   + y_Colegio_Los_Leones_de_Quilpue_Español_de_Talca_4_Gimnasio_Municipal_de_Puente_Alto_2
   + y_Colegio_Los_Leones_de_Quilpue_Español_de_Talca_4_Coliseo_Municipal_Antonio_Azurmendy_2
   + y_Colegio_Los_Leones_de_Quilpue_Español_de_Talca_4_Gimnasio_Fiscal_de_Ancud_2
   + y_Colegio_Los_Leones_de_Quilpue_Español_de_Talca_4_Gimnasio_Monumental_María_Gallardo_2
   + y_Colegio_Los_Leones_de_Quilpue_Español_de_Talca_4_Gimnasio_Fiscal_de_Castro_2
   + y_Colegio_Los_Leones_de_Quilpue_Español_de_Talca_4_Gimnasio_de_Las_Ánimas_2
   + y_Colegio_Los_Leones_de_Quilpue_Español_de_Talca_4_Gimnasio_Municipal_Mario_Merchant_Binder_2
   <= 0
 R19:
   y_Colegio_Los_Leones_de_Quilpue_Español_de_Talca_5_Gimnasio_Colegio_Los_Leones_2
   + y_Colegio_Los_Leones_de_Quilpue_Español_de_Talca_5_Gimnasio_Regional_de_Talca_2
   + y_Colegio_Los_Leones_de_Quilpue_Español_de_Talca_5_Gimnasio_Municipal_de_San_Fernando_2
   + y_Colegio_Los_Leones_de_Quilpue_Español_de_Talca_5_Estadio_Palestino_2
   + y_Colegio_Los_Leones_de_Quilpue_Español_de_Talca_5_Casa_del_Deporte_2
   + y_Colegio_Los_Leones_de_Quilpue_Español_de_Talca_5_Gimnasio_Municipal_de_Puente_Alto_2
   + y_Colegio_Los_Leones_de_Quilpue_Español_de_Talca_5_Coliseo_Municipal_Antonio_Azurmendy_2
   + y_Colegio_Los_Leones_de_Quilpue_Español_de_Talca_5_Gimnasio_Fiscal_de_Ancud_2
   + y_Colegio_Los_Leones_de_Quilpue_Español_de_Talca_5_Gimnasio_Monumental_María_Gallardo_2
   + y_Colegio_Los_Leones_de_Quilpue_Español_de_Talca_5_Gimnasio_Fiscal_de_Castro_2
   + y_Colegio_Los_Leones_de_Quilpue_Español_de_Talca_5_Gimnasio_de_Las_Ánimas_2
   + y_Colegio_Los_Leones_de_Quilpue_Español_de_Talca_5_Gimnasio_Municipal_Mario_Merchant_Binder_2
   <= 0
 R223:
   y_Español_de_Talca_Colegio_Los_Leones_de_Quilpue_1_Gimnasio_Colegio_Los_Leones_2
   + y_Español_de_Talca_Colegio_Los_Leones_de_Quilpue_1_Gimnasio_Regional_de_Talca_2
   + y_Español_de_Talca_Colegio_Los_Leones_de_Quilpue_1_Gimnasio_Municipal_de_San_Fernando_2
   + y_Español_de_Talca_Colegio_Los_Leones_de_Quilpue_1_Estadio_Palestino_2
   + y_Español_de_Talca_Colegio_Los_Leones_de_Quilpue_1_Casa_del_Deporte_2
   + y_Español_de_Talca_Colegio_Los_Leones_de_Quilpue_1_Gimnasio_Municipal_de_Puente_Alto_2
   + y_Español_de_Talca_Colegio_Los_Leones_de_Quilpue_1_Coliseo_Municipal_Antonio_Azurmendy_2
   + y_Español_de_Talca_Colegio_Los_Leones_de_Quilpue_1_Gimnasio_Fiscal_de_Ancud_2
   + y_Español_de_Talca_Colegio_Los_Leones_de_Quilpue_1_Gimnasio_Monumental_María_Gallardo_2
   + y_Español_de_Talca_Colegio_Los_Leones_de_Quilpue_1_Gimnasio_Fiscal_de_Castro_2
   + y_Español_de_Talca_Colegio_Los_Leones_de_Quilpue_1_Gimnasio_de_Las_Ánimas_2
   + y_Español_de_Talca_Colegio_Los_Leones_de_Quilpue_1_Gimnasio_Municipal_Mario_Merchant_Binder_2
   <= 0
 R227:
   y_Español_de_Talca_Colegio_Los_Leones_de_Quilpue_2_Gimnasio_Colegio_Los_Leones_2
   + y_Español_de_Talca_Colegio_Los_Leones_de_Quilpue_2_Gimnasio_Regional_de_Talca_2
   + y_Español_de_Talca_Colegio_Los_Leones_de_Quilpue_2_Gimnasio_Municipal_de_San_Fernando_2
   + y_Español_de_Talca_Colegio_Los_Leones_de_Quilpue_2_Estadio_Palestino_2
   + y_Español_de_Talca_Colegio_Los_Leones_de_Quilpue_2_Casa_del_Deporte_2
   + y_Español_de_Talca_Colegio_Los_Leones_de_Quilpue_2_Gimnasio_Municipal_de_Puente_Alto_2
   + y_Español_de_Talca_Colegio_Los_Leones_de_Quilpue_2_Coliseo_Municipal_Antonio_Azurmendy_2
   + y_Español_de_Talca_Colegio_Los_Leones_de_Quilpue_2_Gimnasio_Fiscal_de_Ancud_2
   + y_Español_de_Talca_Colegio_Los_Leones_de_Quilpue_2_Gimnasio_Monumental_María_Gallardo_2
   + y_Español_de_Talca_Colegio_Los_Leones_de_Quilpue_2_Gimnasio_Fiscal_de_Castro_2
   + y_Español_de_Talca_Colegio_Los_Leones_de_Quilpue_2_Gimnasio_de_Las_Ánimas_2
   + y_Español_de_Talca_Colegio_Los_Leones_de_Quilpue_2_Gimnasio_Municipal_Mario_Merchant_Binder_2
   <= 0
 R231:
   y_Español_de_Talca_Colegio_Los_Leones_de_Quilpue_3_Gimnasio_Colegio_Los_Leones_2
   + y_Español_de_Talca_Colegio_Los_Leones_de_Quilpue_3_Gimnasio_Regional_de_Talca_2
   + y_Español_de_Talca_Colegio_Los_Leones_de_Quilpue_3_Gimnasio_Municipal_de_San_Fernando_2
   + y_Español_de_Talca_Colegio_Los_Leones_de_Quilpue_3_Estadio_Palestino_2
   + y_Español_de_Talca_Colegio_Los_Leones_de_Quilpue_3_Casa_del_Deporte_2
   + y_Español_de_Talca_Colegio_Los_Leones_de_Quilpue_3_Gimnasio_Municipal_de_Puente_Alto_2
   + y_Español_de_Talca_Colegio_Los_Leones_de_Quilpue_3_Coliseo_Municipal_Antonio_Azurmendy_2
   + y_Español_de_Talca_Colegio_Los_Leones_de_Quilpue_3_Gimnasio_Fiscal_de_Ancud_2
   + y_Español_de_Talca_Colegio_Los_Leones_de_Quilpue_3_Gimnasio_Monumental_María_Gallardo_2
   + y_Español_de_Talca_Colegio_Los_Leones_de_Quilpue_3_Gimnasio_Fiscal_de_Castro_2
   + y_Español_de_Talca_Colegio_Los_Leones_de_Quilpue_3_Gimnasio_de_Las_Ánimas_2
   + y_Español_de_Talca_Colegio_Los_Leones_de_Quilpue_3_Gimnasio_Municipal_Mario_Merchant_Binder_2
   <= 0
 R235:
   y_Español_de_Talca_Colegio_Los_Leones_de_Quilpue_4_Gimnasio_Colegio_Los_Leones_2
   + y_Español_de_Talca_Colegio_Los_Leones_de_Quilpue_4_Gimnasio_Regional_de_Talca_2
   + y_Español_de_Talca_Colegio_Los_Leones_de_Quilpue_4_Gimnasio_Municipal_de_San_Fernando_2
   + y_Español_de_Talca_Colegio_Los_Leones_de_Quilpue_4_Estadio_Palestino_2
   + y_Español_de_Talca_Colegio_Los_Leones_de_Quilpue_4_Casa_del_Deporte_2
   + y_Español_de_Talca_Colegio_Los_Leones_de_Quilpue_4_Gimnasio_Municipal_de_Puente_Alto_2
   + y_Español_de_Talca_Colegio_Los_Leones_de_Quilpue_4_Coliseo_Municipal_Antonio_Azurmendy_2
   + y_Español_de_Talca_Colegio_Los_Leones_de_Quilpue_4_Gimnasio_Fiscal_de_Ancud_2
   + y_Español_de_Talca_Colegio_Los_Leones_de_Quilpue_4_Gimnasio_Monumental_María_Gallardo_2
   + y_Español_de_Talca_Colegio_Los_Leones_de_Quilpue_4_Gimnasio_Fiscal_de_Castro_2
   + y_Español_de_Talca_Colegio_Los_Leones_de_Quilpue_4_Gimnasio_de_Las_Ánimas_2
   + y_Español_de_Talca_Colegio_Los_Leones_de_Quilpue_4_Gimnasio_Municipal_Mario_Merchant_Binder_2
   <= 0
 R239:
   y_Español_de_Talca_Colegio_Los_Leones_de_Quilpue_5_Gimnasio_Colegio_Los_Leones_2
   + y_Español_de_Talca_Colegio_Los_Leones_de_Quilpue_5_Gimnasio_Regional_de_Talca_2
   + y_Español_de_Talca_Colegio_Los_Leones_de_Quilpue_5_Gimnasio_Municipal_de_San_Fernando_2
   + y_Español_de_Talca_Colegio_Los_Leones_de_Quilpue_5_Estadio_Palestino_2
   + y_Español_de_Talca_Colegio_Los_Leones_de_Quilpue_5_Casa_del_Deporte_2
   + y_Español_de_Talca_Colegio_Los_Leones_de_Quilpue_5_Gimnasio_Municipal_de_Puente_Alto_2
   + y_Español_de_Talca_Colegio_Los_Leones_de_Quilpue_5_Coliseo_Municipal_Antonio_Azurmendy_2
   + y_Español_de_Talca_Colegio_Los_Leones_de_Quilpue_5_Gimnasio_Fiscal_de_Ancud_2
   + y_Español_de_Talca_Colegio_Los_Leones_de_Quilpue_5_Gimnasio_Monumental_María_Gallardo_2
   + y_Español_de_Talca_Colegio_Los_Leones_de_Quilpue_5_Gimnasio_Fiscal_de_Castro_2
   + y_Español_de_Talca_Colegio_Los_Leones_de_Quilpue_5_Gimnasio_de_Las_Ánimas_2
   + y_Español_de_Talca_Colegio_Los_Leones_de_Quilpue_5_Gimnasio_Municipal_Mario_Merchant_Binder_2
   <= 0
 R2643:
   y_Colegio_Los_Leones_de_Quilpue_Español_de_Talca_1_Gimnasio_Colegio_Los_Leones_2
   + y_Colegio_Los_Leones_de_Quilpue_Español_de_Talca_1_Gimnasio_Regional_de_Talca_2
   + y_Colegio_Los_Leones_de_Quilpue_Español_de_Talca_1_Gimnasio_Municipal_de_San_Fernando_2
   + y_Colegio_Los_Leones_de_Quilpue_Español_de_Talca_1_Estadio_Palestino_2
   + y_Colegio_Los_Leones_de_Quilpue_Español_de_Talca_1_Casa_del_Deporte_2
   + y_Colegio_Los_Leones_de_Quilpue_Español_de_Talca_1_Gimnasio_Municipal_de_Puente_Alto_2
   + y_Colegio_Los_Leones_de_Quilpue_Español_de_Talca_1_Coliseo_Municipal_Antonio_Azurmendy_2
   + y_Colegio_Los_Leones_de_Quilpue_Español_de_Talca_1_Gimnasio_Fiscal_de_Ancud_2
   + y_Colegio_Los_Leones_de_Quilpue_Español_de_Talca_1_Gimnasio_Monumental_María_Gallardo_2
   + y_Colegio_Los_Leones_de_Quilpue_Español_de_Talca_1_Gimnasio_Fiscal_de_Castro_2
   + y_Colegio_Los_Leones_de_Quilpue_Español_de_Talca_1_Gimnasio_de_Las_Ánimas_2
   + y_Colegio_Los_Leones_de_Quilpue_Español_de_Talca_1_Gimnasio_Municipal_Mario_Merchant_Binder_2
   + y_Colegio_Los_Leones_de_Quilpue_Español_de_Talca_2_Gimnasio_Colegio_Los_Leones_2
   + y_Colegio_Los_Leones_de_Quilpue_Español_de_Talca_2_Gimnasio_Regional_de_Talca_2
   + y_Colegio_Los_Leones_de_Quilpue_Español_de_Talca_2_Gimnasio_Municipal_de_San_Fernando_2
   + y_Colegio_Los_Leones_de_Quilpue_Español_de_Talca_2_Estadio_Palestino_2
   + y_Colegio_Los_Leones_de_Quilpue_Español_de_Talca_2_Casa_del_Deporte_2
   + y_Colegio_Los_Leones_de_Quilpue_Español_de_Talca_2_Gimnasio_Municipal_de_Puente_Alto_2
   + y_Colegio_Los_Leones_de_Quilpue_Español_de_Talca_2_Coliseo_Municipal_Antonio_Azurmendy_2
   + y_Colegio_Los_Leones_de_Quilpue_Español_de_Talca_2_Gimnasio_Fiscal_de_Ancud_2
   + y_Colegio_Los_Leones_de_Quilpue_Español_de_Talca_2_Gimnasio_Monumental_María_Gallardo_2
   + y_Colegio_Los_Leones_de_Quilpue_Español_de_Talca_2_Gimnasio_Fiscal_de_Castro_2
   + y_Colegio_Los_Leones_de_Quilpue_Español_de_Talca_2_Gimnasio_de_Las_Ánimas_2
   + y_Colegio_Los_Leones_de_Quilpue_Español_de_Talca_2_Gimnasio_Municipal_Mario_Merchant_Binder_2
   + y_Colegio_Los_Leones_de_Quilpue_Español_de_Talca_3_Gimnasio_Colegio_Los_Leones_2
   + y_Colegio_Los_Leones_de_Quilpue_Español_de_Talca_3_Gimnasio_Regional_de_Talca_2
   + y_Colegio_Los_Leones_de_Quilpue_Español_de_Talca_3_Gimnasio_Municipal_de_San_Fernando_2
   + y_Colegio_Los_Leones_de_Quilpue_Español_de_Talca_3_Estadio_Palestino_2
   + y_Colegio_Los_Leones_de_Quilpue_Español_de_Talca_3_Casa_del_Deporte_2
   + y_Colegio_Los_Leones_de_Quilpue_Español_de_Talca_3_Gimnasio_Municipal_de_Puente_Alto_2
   + y_Colegio_Los_Leones_de_Quilpue_Español_de_Talca_3_Coliseo_Municipal_Antonio_Azurmendy_2
   + y_Colegio_Los_Leones_de_Quilpue_Español_de_Talca_3_Gimnasio_Fiscal_de_Ancud_2
   + y_Colegio_Los_Leones_de_Quilpue_Español_de_Talca_3_Gimnasio_Monumental_María_Gallardo_2
   + y_Colegio_Los_Leones_de_Quilpue_Español_de_Talca_3_Gimnasio_Fiscal_de_Castro_2
   + y_Colegio_Los_Leones_de_Quilpue_Español_de_Talca_3_Gimnasio_de_Las_Ánimas_2
   + y_Colegio_Los_Leones_de_Quilpue_Español_de_Talca_3_Gimnasio_Municipal_Mario_Merchant_Binder_2
   + y_Colegio_Los_Leones_de_Quilpue_Español_de_Talca_4_Gimnasio_Colegio_Los_Leones_2
   + y_Colegio_Los_Leones_de_Quilpue_Español_de_Talca_4_Gimnasio_Regional_de_Talca_2
   + y_Colegio_Los_Leones_de_Quilpue_Español_de_Talca_4_Gimnasio_Municipal_de_San_Fernando_2
   + y_Colegio_Los_Leones_de_Quilpue_Español_de_Talca_4_Estadio_Palestino_2
   + y_Colegio_Los_Leones_de_Quilpue_Español_de_Talca_4_Casa_del_Deporte_2
   + y_Colegio_Los_Leones_de_Quilpue_Español_de_Talca_4_Gimnasio_Municipal_de_Puente_Alto_2
   + y_Colegio_Los_Leones_de_Quilpue_Español_de_Talca_4_Coliseo_Municipal_Antonio_Azurmendy_2
   + y_Colegio_Los_Leones_de_Quilpue_Español_de_Talca_4_Gimnasio_Fiscal_de_Ancud_2
   + y_Colegio_Los_Leones_de_Quilpue_Español_de_Talca_4_Gimnasio_Monumental_María_Gallardo_2
   + y_Colegio_Los_Leones_de_Quilpue_Español_de_Talca_4_Gimnasio_Fiscal_de_Castro_2
   + y_Colegio_Los_Leones_de_Quilpue_Español_de_Talca_4_Gimnasio_de_Las_Ánimas_2
   + y_Colegio_Los_Leones_de_Quilpue_Español_de_Talca_4_Gimnasio_Municipal_Mario_Merchant_Binder_2
   + y_Colegio_Los_Leones_de_Quilpue_Español_de_Talca_5_Gimnasio_Colegio_Los_Leones_2
   + y_Colegio_Los_Leones_de_Quilpue_Español_de_Talca_5_Gimnasio_Regional_de_Talca_2
   + y_Colegio_Los_Leones_de_Quilpue_Español_de_Talca_5_Gimnasio_Municipal_de_San_Fernando_2
   + y_Colegio_Los_Leones_de_Quilpue_Español_de_Talca_5_Estadio_Palestino_2
   + y_Colegio_Los_Leones_de_Quilpue_Español_de_Talca_5_Casa_del_Deporte_2
   + y_Colegio_Los_Leones_de_Quilpue_Español_de_Talca_5_Gimnasio_Municipal_de_Puente_Alto_2
   + y_Colegio_Los_Leones_de_Quilpue_Español_de_Talca_5_Coliseo_Municipal_Antonio_Azurmendy_2
   + y_Colegio_Los_Leones_de_Quilpue_Español_de_Talca_5_Gimnasio_Fiscal_de_Ancud_2
   + y_Colegio_Los_Leones_de_Quilpue_Español_de_Talca_5_Gimnasio_Monumental_María_Gallardo_2
   + y_Colegio_Los_Leones_de_Quilpue_Español_de_Talca_5_Gimnasio_Fiscal_de_Castro_2
   + y_Colegio_Los_Leones_de_Quilpue_Español_de_Talca_5_Gimnasio_de_Las_Ánimas_2
   + y_Colegio_Los_Leones_de_Quilpue_Español_de_Talca_5_Gimnasio_Municipal_Mario_Merchant_Binder_2
   + y_Español_de_Talca_Colegio_Los_Leones_de_Quilpue_1_Gimnasio_Colegio_Los_Leones_2
   + y_Español_de_Talca_Colegio_Los_Leones_de_Quilpue_1_Gimnasio_Regional_de_Talca_2
   + y_Español_de_Talca_Colegio_Los_Leones_de_Quilpue_1_Gimnasio_Municipal_de_San_Fernando_2
   + y_Español_de_Talca_Colegio_Los_Leones_de_Quilpue_1_Estadio_Palestino_2
   + y_Español_de_Talca_Colegio_Los_Leones_de_Quilpue_1_Casa_del_Deporte_2
   + y_Español_de_Talca_Colegio_Los_Leones_de_Quilpue_1_Gimnasio_Municipal_de_Puente_Alto_2
   + y_Español_de_Talca_Colegio_Los_Leones_de_Quilpue_1_Coliseo_Municipal_Antonio_Azurmendy_2
   + y_Español_de_Talca_Colegio_Los_Leones_de_Quilpue_1_Gimnasio_Fiscal_de_Ancud_2
   + y_Español_de_Talca_Colegio_Los_Leones_de_Quilpue_1_Gimnasio_Monumental_María_Gallardo_2
   + y_Español_de_Talca_Colegio_Los_Leones_de_Quilpue_1_Gimnasio_Fiscal_de_Castro_2
   + y_Español_de_Talca_Colegio_Los_Leones_de_Quilpue_1_Gimnasio_de_Las_Ánimas_2
   + y_Español_de_Talca_Colegio_Los_Leones_de_Quilpue_1_Gimnasio_Municipal_Mario_Merchant_Binder_2
   + y_Español_de_Talca_Colegio_Los_Leones_de_Quilpue_2_Gimnasio_Colegio_Los_Leones_2
   + y_Español_de_Talca_Colegio_Los_Leones_de_Quilpue_2_Gimnasio_Regional_de_Talca_2
   + y_Español_de_Talca_Colegio_Los_Leones_de_Quilpue_2_Gimnasio_Municipal_de_San_Fernando_2
   + y_Español_de_Talca_Colegio_Los_Leones_de_Quilpue_2_Estadio_Palestino_2
   + y_Español_de_Talca_Colegio_Los_Leones_de_Quilpue_2_Casa_del_Deporte_2
   + y_Español_de_Talca_Colegio_Los_Leones_de_Quilpue_2_Gimnasio_Municipal_de_Puente_Alto_2
   + y_Español_de_Talca_Colegio_Los_Leones_de_Quilpue_2_Coliseo_Municipal_Antonio_Azurmendy_2
   + y_Español_de_Talca_Colegio_Los_Leones_de_Quilpue_2_Gimnasio_Fiscal_de_Ancud_2
   + y_Español_de_Talca_Colegio_Los_Leones_de_Quilpue_2_Gimnasio_Monumental_María_Gallardo_2
   + y_Español_de_Talca_Colegio_Los_Leones_de_Quilpue_2_Gimnasio_Fiscal_de_Castro_2
   + y_Español_de_Talca_Colegio_Los_Leones_de_Quilpue_2_Gimnasio_de_Las_Ánimas_2
   + y_Español_de_Talca_Colegio_Los_Leones_de_Quilpue_2_Gimnasio_Municipal_Mario_Merchant_Binder_2
   + y_Español_de_Talca_Colegio_Los_Leones_de_Quilpue_3_Gimnasio_Colegio_Los_Leones_2
   + y_Español_de_Talca_Colegio_Los_Leones_de_Quilpue_3_Gimnasio_Regional_de_Talca_2
   + y_Español_de_Talca_Colegio_Los_Leones_de_Quilpue_3_Gimnasio_Municipal_de_San_Fernando_2
   + y_Español_de_Talca_Colegio_Los_Leones_de_Quilpue_3_Estadio_Palestino_2
   + y_Español_de_Talca_Colegio_Los_Leones_de_Quilpue_3_Casa_del_Deporte_2
   + y_Español_de_Talca_Colegio_Los_Leones_de_Quilpue_3_Gimnasio_Municipal_de_Puente_Alto_2
   + y_Español_de_Talca_Colegio_Los_Leones_de_Quilpue_3_Coliseo_Municipal_Antonio_Azurmendy_2
   + y_Español_de_Talca_Colegio_Los_Leones_de_Quilpue_3_Gimnasio_Fiscal_de_Ancud_2
   + y_Español_de_Talca_Colegio_Los_Leones_de_Quilpue_3_Gimnasio_Monumental_María_Gallardo_2
   + y_Español_de_Talca_Colegio_Los_Leones_de_Quilpue_3_Gimnasio_Fiscal_de_Castro_2
   + y_Español_de_Talca_Colegio_Los_Leones_de_Quilpue_3_Gimnasio_de_Las_Ánimas_2
   + y_Español_de_Talca_Colegio_Los_Leones_de_Quilpue_3_Gimnasio_Municipal_Mario_Merchant_Binder_2
   + y_Español_de_Talca_Colegio_Los_Leones_de_Quilpue_4_Gimnasio_Colegio_Los_Leones_2
   + y_Español_de_Talca_Colegio_Los_Leones_de_Quilpue_4_Gimnasio_Regional_de_Talca_2
   + y_Español_de_Talca_Colegio_Los_Leones_de_Quilpue_4_Gimnasio_Municipal_de_San_Fernando_2
   + y_Español_de_Talca_Colegio_Los_Leones_de_Quilpue_4_Estadio_Palestino_2
   + y_Español_de_Talca_Colegio_Los_Leones_de_Quilpue_4_Casa_del_Deporte_2
   + y_Español_de_Talca_Colegio_Los_Leones_de_Quilpue_4_Gimnasio_Municipal_de_Puente_Alto_2
   + y_Español_de_Talca_Colegio_Los_Leones_de_Quilpue_4_Coliseo_Municipal_Antonio_Azurmendy_2
   + y_Español_de_Talca_Colegio_Los_Leones_de_Quilpue_4_Gimnasio_Fiscal_de_Ancud_2
   + y_Español_de_Talca_Colegio_Los_Leones_de_Quilpue_4_Gimnasio_Monumental_María_Gallardo_2
   + y_Español_de_Talca_Colegio_Los_Leones_de_Quilpue_4_Gimnasio_Fiscal_de_Castro_2
   + y_Español_de_Talca_Colegio_Los_Leones_de_Quilpue_4_Gimnasio_de_Las_Ánimas_2
   + y_Español_de_Talca_Colegio_Los_Leones_de_Quilpue_4_Gimnasio_Municipal_Mario_Merchant_Binder_2
   + y_Español_de_Talca_Colegio_Los_Leones_de_Quilpue_5_Gimnasio_Colegio_Los_Leones_2
   + y_Español_de_Talca_Colegio_Los_Leones_de_Quilpue_5_Gimnasio_Regional_de_Talca_2
   + y_Español_de_Talca_Colegio_Los_Leones_de_Quilpue_5_Gimnasio_Municipal_de_San_Fernando_2
   + y_Español_de_Talca_Colegio_Los_Leones_de_Quilpue_5_Estadio_Palestino_2
   + y_Español_de_Talca_Colegio_Los_Leones_de_Quilpue_5_Casa_del_Deporte_2
   + y_Español_de_Talca_Colegio_Los_Leones_de_Quilpue_5_Gimnasio_Municipal_de_Puente_Alto_2
   + y_Español_de_Talca_Colegio_Los_Leones_de_Quilpue_5_Coliseo_Municipal_Antonio_Azurmendy_2
   + y_Español_de_Talca_Colegio_Los_Leones_de_Quilpue_5_Gimnasio_Fiscal_de_Ancud_2
   + y_Español_de_Talca_Colegio_Los_Leones_de_Quilpue_5_Gimnasio_Monumental_María_Gallardo_2
   + y_Español_de_Talca_Colegio_Los_Leones_de_Quilpue_5_Gimnasio_Fiscal_de_Castro_2
   + y_Español_de_Talca_Colegio_Los_Leones_de_Quilpue_5_Gimnasio_de_Las_Ánimas_2
   + y_Español_de_Talca_Colegio_Los_Leones_de_Quilpue_5_Gimnasio_Municipal_Mario_Merchant_Binder_2
   = 1
Bounds
Binaries

 y_Colegio_Los_Leones_de_Quilpue_Español_de_Talca_1_Gimnasio_Colegio_Los_Leones_2
 y_Colegio_Los_Leones_de_Quilpue_Español_de_Talca_1_Gimnasio_Regional_de_Talca_2
 y_Colegio_Los_Leones_de_Quilpue_Español_de_Talca_1_Gimnasio_Municipal_de_San_Fernando_2
 y_Colegio_Los_Leones_de_Quilpue_Español_de_Talca_1_Estadio_Palestino_2
 y_Colegio_Los_Leones_de_Quilpue_Español_de_Talca_1_Casa_del_Deporte_2
 y_Colegio_Los_Leones_de_Quilpue_Español_de_Talca_1_Gimnasio_Municipal_de_Puente_Alto_2
 y_Colegio_Los_Leones_de_Quilpue_Español_de_Talca_1_Coliseo_Municipal_Antonio_Azurmendy_2
 y_Colegio_Los_Leones_de_Quilpue_Español_de_Talca_1_Gimnasio_Fiscal_de_Ancud_2
 y_Colegio_Los_Leones_de_Quilpue_Español_de_Talca_1_Gimnasio_Monumental_María_Gallardo_2
 y_Colegio_Los_Leones_de_Quilpue_Español_de_Talca_1_Gimnasio_Fiscal_de_Castro_2
 y_Colegio_Los_Leones_de_Quilpue_Español_de_Talca_1_Gimnasio_de_Las_Ánimas_2
 y_Colegio_Los_Leones_de_Quilpue_Español_de_Talca_1_Gimnasio_Municipal_Mario_Merchant_Binder_2
 y_Colegio_Los_Leones_de_Quilpue_Español_de_Talca_2_Gimnasio_Colegio_Los_Leones_2
 y_Colegio_Los_Leones_de_Quilpue_Español_de_Talca_2_Gimnasio_Regional_de_Talca_2
 y_Colegio_Los_Leones_de_Quilpue_Español_de_Talca_2_Gimnasio_Municipal_de_San_Fernando_2
 y_Colegio_Los_Leones_de_Quilpue_Español_de_Talca_2_Estadio_Palestino_2
 y_Colegio_Los_Leones_de_Quilpue_Español_de_Talca_2_Casa_del_Deporte_2
 y_Colegio_Los_Leones_de_Quilpue_Español_de_Talca_2_Gimnasio_Municipal_de_Puente_Alto_2
 y_Colegio_Los_Leones_de_Quilpue_Español_de_Talca_2_Coliseo_Municipal_Antonio_Azurmendy_2
 y_Colegio_Los_Leones_de_Quilpue_Español_de_Talca_2_Gimnasio_Fiscal_de_Ancud_2
 y_Colegio_Los_Leones_de_Quilpue_Español_de_Talca_2_Gimnasio_Monumental_María_Gallardo_2
 y_Colegio_Los_Leones_de_Quilpue_Español_de_Talca_2_Gimnasio_Fiscal_de_Castro_2
 y_Colegio_Los_Leones_de_Quilpue_Español_de_Talca_2_Gimnasio_de_Las_Ánimas_2
 y_Colegio_Los_Leones_de_Quilpue_Español_de_Talca_2_Gimnasio_Municipal_Mario_Merchant_Binder_2
 y_Colegio_Los_Leones_de_Quilpue_Español_de_Talca_3_Gimnasio_Colegio_Los_Leones_2
 y_Colegio_Los_Leones_de_Quilpue_Español_de_Talca_3_Gimnasio_Regional_de_Talca_2
 y_Colegio_Los_Leones_de_Quilpue_Español_de_Talca_3_Gimnasio_Municipal_de_San_Fernando_2
 y_Colegio_Los_Leones_de_Quilpue_Español_de_Talca_3_Estadio_Palestino_2
 y_Colegio_Los_Leones_de_Quilpue_Español_de_Talca_3_Casa_del_Deporte_2
 y_Colegio_Los_Leones_de_Quilpue_Español_de_Talca_3_Gimnasio_Municipal_de_Puente_Alto_2
 y_Colegio_Los_Leones_de_Quilpue_Español_de_Talca_3_Coliseo_Municipal_Antonio_Azurmendy_2
 y_Colegio_Los_Leones_de_Quilpue_Español_de_Talca_3_Gimnasio_Fiscal_de_Ancud_2
 y_Colegio_Los_Leones_de_Quilpue_Español_de_Talca_3_Gimnasio_Monumental_María_Gallardo_2
 y_Colegio_Los_Leones_de_Quilpue_Español_de_Talca_3_Gimnasio_Fiscal_de_Castro_2
 y_Colegio_Los_Leones_de_Quilpue_Español_de_Talca_3_Gimnasio_de_Las_Ánimas_2
 y_Colegio_Los_Leones_de_Quilpue_Español_de_Talca_3_Gimnasio_Municipal_Mario_Merchant_Binder_2
 y_Colegio_Los_Leones_de_Quilpue_Español_de_Talca_4_Gimnasio_Colegio_Los_Leones_2
 y_Colegio_Los_Leones_de_Quilpue_Español_de_Talca_4_Gimnasio_Regional_de_Talca_2
 y_Colegio_Los_Leones_de_Quilpue_Español_de_Talca_4_Gimnasio_Municipal_de_San_Fernando_2
 y_Colegio_Los_Leones_de_Quilpue_Español_de_Talca_4_Estadio_Palestino_2
 y_Colegio_Los_Leones_de_Quilpue_Español_de_Talca_4_Casa_del_Deporte_2
 y_Colegio_Los_Leones_de_Quilpue_Español_de_Talca_4_Gimnasio_Municipal_de_Puente_Alto_2
 y_Colegio_Los_Leones_de_Quilpue_Español_de_Talca_4_Coliseo_Municipal_Antonio_Azurmendy_2
 y_Colegio_Los_Leones_de_Quilpue_Español_de_Talca_4_Gimnasio_Fiscal_de_Ancud_2
 y_Colegio_Los_Leones_de_Quilpue_Español_de_Talca_4_Gimnasio_Monumental_María_Gallardo_2
 y_Colegio_Los_Leones_de_Quilpue_Español_de_Talca_4_Gimnasio_Fiscal_de_Castro_2
 y_Colegio_Los_Leones_de_Quilpue_Español_de_Talca_4_Gimnasio_de_Las_Ánimas_2
 y_Colegio_Los_Leones_de_Quilpue_Español_de_Talca_4_Gimnasio_Municipal_Mario_Merchant_Binder_2
 y_Colegio_Los_Leones_de_Quilpue_Español_de_Talca_5_Gimnasio_Colegio_Los_Leones_2
 y_Colegio_Los_Leones_de_Quilpue_Español_de_Talca_5_Gimnasio_Regional_de_Talca_2
 y_Colegio_Los_Leones_de_Quilpue_Español_de_Talca_5_Gimnasio_Municipal_de_San_Fernando_2
 y_Colegio_Los_Leones_de_Quilpue_Español_de_Talca_5_Estadio_Palestino_2
 y_Colegio_Los_Leones_de_Quilpue_Español_de_Talca_5_Casa_del_Deporte_2
 y_Colegio_Los_Leones_de_Quilpue_Español_de_Talca_5_Gimnasio_Municipal_de_Puente_Alto_2
 y_Colegio_Los_Leones_de_Quilpue_Español_de_Talca_5_Coliseo_Municipal_Antonio_Azurmendy_2
 y_Colegio_Los_Leones_de_Quilpue_Español_de_Talca_5_Gimnasio_Fiscal_de_Ancud_2
 y_Colegio_Los_Leones_de_Quilpue_Español_de_Talca_5_Gimnasio_Monumental_María_Gallardo_2
 y_Colegio_Los_Leones_de_Quilpue_Español_de_Talca_5_Gimnasio_Fiscal_de_Castro_2
 y_Colegio_Los_Leones_de_Quilpue_Español_de_Talca_5_Gimnasio_de_Las_Ánimas_2
 y_Colegio_Los_Leones_de_Quilpue_Español_de_Talca_5_Gimnasio_Municipal_Mario_Merchant_Binder_2
 y_Español_de_Talca_Colegio_Los_Leones_de_Quilpue_1_Gimnasio_Colegio_Los_Leones_2
 y_Español_de_Talca_Colegio_Los_Leones_de_Quilpue_1_Gimnasio_Regional_de_Talca_2
 y_Español_de_Talca_Colegio_Los_Leones_de_Quilpue_1_Gimnasio_Municipal_de_San_Fernando_2
 y_Español_de_Talca_Colegio_Los_Leones_de_Quilpue_1_Estadio_Palestino_2
 y_Español_de_Talca_Colegio_Los_Leones_de_Quilpue_1_Casa_del_Deporte_2
 y_Español_de_Talca_Colegio_Los_Leones_de_Quilpue_1_Gimnasio_Municipal_de_Puente_Alto_2
 y_Español_de_Talca_Colegio_Los_Leones_de_Quilpue_1_Coliseo_Municipal_Antonio_Azurmendy_2
 y_Español_de_Talca_Colegio_Los_Leones_de_Quilpue_1_Gimnasio_Fiscal_de_Ancud_2
 y_Español_de_Talca_Colegio_Los_Leones_de_Quilpue_1_Gimnasio_Monumental_María_Gallardo_2
 y_Español_de_Talca_Colegio_Los_Leones_de_Quilpue_1_Gimnasio_Fiscal_de_Castro_2
 y_Español_de_Talca_Colegio_Los_Leones_de_Quilpue_1_Gimnasio_de_Las_Ánimas_2
 y_Español_de_Talca_Colegio_Los_Leones_de_Quilpue_1_Gimnasio_Municipal_Mario_Merchant_Binder_2
 y_Español_de_Talca_Colegio_Los_Leones_de_Quilpue_2_Gimnasio_Colegio_Los_Leones_2
 y_Español_de_Talca_Colegio_Los_Leones_de_Quilpue_2_Gimnasio_Regional_de_Talca_2
 y_Español_de_Talca_Colegio_Los_Leones_de_Quilpue_2_Gimnasio_Municipal_de_San_Fernando_2
 y_Español_de_Talca_Colegio_Los_Leones_de_Quilpue_2_Estadio_Palestino_2
 y_Español_de_Talca_Colegio_Los_Leones_de_Quilpue_2_Casa_del_Deporte_2
 y_Español_de_Talca_Colegio_Los_Leones_de_Quilpue_2_Gimnasio_Municipal_de_Puente_Alto_2
 y_Español_de_Talca_Colegio_Los_Leones_de_Quilpue_2_Coliseo_Municipal_Antonio_Azurmendy_2
 y_Español_de_Talca_Colegio_Los_Leones_de_Quilpue_2_Gimnasio_Fiscal_de_Ancud_2
 y_Español_de_Talca_Colegio_Los_Leones_de_Quilpue_2_Gimnasio_Monumental_María_Gallardo_2
 y_Español_de_Talca_Colegio_Los_Leones_de_Quilpue_2_Gimnasio_Fiscal_de_Castro_2
 y_Español_de_Talca_Colegio_Los_Leones_de_Quilpue_2_Gimnasio_de_Las_Ánimas_2
 y_Español_de_Talca_Colegio_Los_Leones_de_Quilpue_2_Gimnasio_Municipal_Mario_Merchant_Binder_2
 y_Español_de_Talca_Colegio_Los_Leones_de_Quilpue_3_Gimnasio_Colegio_Los_Leones_2
 y_Español_de_Talca_Colegio_Los_Leones_de_Quilpue_3_Gimnasio_Regional_de_Talca_2
 y_Español_de_Talca_Colegio_Los_Leones_de_Quilpue_3_Gimnasio_Municipal_de_San_Fernando_2
 y_Español_de_Talca_Colegio_Los_Leones_de_Quilpue_3_Estadio_Palestino_2
 y_Español_de_Talca_Colegio_Los_Leones_de_Quilpue_3_Casa_del_Deporte_2
 y_Español_de_Talca_Colegio_Los_Leones_de_Quilpue_3_Gimnasio_Municipal_de_Puente_Alto_2
 y_Español_de_Talca_Colegio_Los_Leones_de_Quilpue_3_Coliseo_Municipal_Antonio_Azurmendy_2
 y_Español_de_Talca_Colegio_Los_Leones_de_Quilpue_3_Gimnasio_Fiscal_de_Ancud_2
 y_Español_de_Talca_Colegio_Los_Leones_de_Quilpue_3_Gimnasio_Monumental_María_Gallardo_2
 y_Español_de_Talca_Colegio_Los_Leones_de_Quilpue_3_Gimnasio_Fiscal_de_Castro_2
 y_Español_de_Talca_Colegio_Los_Leones_de_Quilpue_3_Gimnasio_de_Las_Ánimas_2
 y_Español_de_Talca_Colegio_Los_Leones_de_Quilpue_3_Gimnasio_Municipal_Mario_Merchant_Binder_2
 y_Español_de_Talca_Colegio_Los_Leones_de_Quilpue_4_Gimnasio_Colegio_Los_Leones_2
 y_Español_de_Talca_Colegio_Los_Leones_de_Quilpue_4_Gimnasio_Regional_de_Talca_2
 y_Español_de_Talca_Colegio_Los_Leones_de_Quilpue_4_Gimnasio_Municipal_de_San_Fernando_2
 y_Español_de_Talca_Colegio_Los_Leones_de_Quilpue_4_Estadio_Palestino_2
 y_Español_de_Talca_Colegio_Los_Leones_de_Quilpue_4_Casa_del_Deporte_2
 y_Español_de_Talca_Colegio_Los_Leones_de_Quilpue_4_Gimnasio_Municipal_de_Puente_Alto_2
 y_Español_de_Talca_Colegio_Los_Leones_de_Quilpue_4_Coliseo_Municipal_Antonio_Azurmendy_2
 y_Español_de_Talca_Colegio_Los_Leones_de_Quilpue_4_Gimnasio_Fiscal_de_Ancud_2
 y_Español_de_Talca_Colegio_Los_Leones_de_Quilpue_4_Gimnasio_Monumental_María_Gallardo_2
 y_Español_de_Talca_Colegio_Los_Leones_de_Quilpue_4_Gimnasio_Fiscal_de_Castro_2
 y_Español_de_Talca_Colegio_Los_Leones_de_Quilpue_4_Gimnasio_de_Las_Ánimas_2
 y_Español_de_Talca_Colegio_Los_Leones_de_Quilpue_4_Gimnasio_Municipal_Mario_Merchant_Binder_2
 y_Español_de_Talca_Colegio_Los_Leones_de_Quilpue_5_Gimnasio_Colegio_Los_Leones_2
 y_Español_de_Talca_Colegio_Los_Leones_de_Quilpue_5_Gimnasio_Regional_de_Talca_2
 y_Español_de_Talca_Colegio_Los_Leones_de_Quilpue_5_Gimnasio_Municipal_de_San_Fernando_2
 y_Español_de_Talca_Colegio_Los_Leones_de_Quilpue_5_Estadio_Palestino_2
 y_Español_de_Talca_Colegio_Los_Leones_de_Quilpue_5_Casa_del_Deporte_2
 y_Español_de_Talca_Colegio_Los_Leones_de_Quilpue_5_Gimnasio_Municipal_de_Puente_Alto_2
 y_Español_de_Talca_Colegio_Los_Leones_de_Quilpue_5_Coliseo_Municipal_Antonio_Azurmendy_2
 y_Español_de_Talca_Colegio_Los_Leones_de_Quilpue_5_Gimnasio_Fiscal_de_Ancud_2
 y_Español_de_Talca_Colegio_Los_Leones_de_Quilpue_5_Gimnasio_Monumental_María_Gallardo_2
 y_Español_de_Talca_Colegio_Los_Leones_de_Quilpue_5_Gimnasio_Fiscal_de_Castro_2
 y_Español_de_Talca_Colegio_Los_Leones_de_Quilpue_5_Gimnasio_de_Las_Ánimas_2
 y_Español_de_Talca_Colegio_Los_Leones_de_Quilpue_5_Gimnasio_Municipal_Mario_Merchant_Binder_2
End
